files/upTests/_functions/setOfFunc/0001.eprime.solution
language ESSENCE' 1.0
$ minion Nodes: 11
$ minion TotalTime: 0.001405
$ Savile Row TotalTime: 0.194
letting fs_ExplicitVarSize_tuple1 be [0, 0, 0, 1;int(1..4)]
letting fs_ExplicitVarSize_tuple2_Matrix1D be [[-1, -1;int(1..2)], 
[-1, -1;int(1..2)], 
[-1, -1;int(1..2)], 
[1, -1;int(1..2)];int(1..4)]
